p edge 55 526
e 1 3
e 1 4
e 1 5
e 1 9
e 1 11
e 1 12
e 1 14
e 1 15
e 1 18
e 1 21
e 1 24
e 1 25
e 1 27
e 1 28
e 1 29
e 1 43
e 1 44
e 1 45
e 1 46
e 1 47
e 1 48
e 1 49
e 1 53
e 1 54
e 2 5
e 2 7
e 2 15
e 2 16
e 2 17
e 2 18
e 2 19
e 2 22
e 2 27
e 2 28
e 2 30
e 2 34
e 2 37
e 2 38
e 2 39
e 2 43
e 2 49
e 2 53
e 2 55
e 3 8
e 3 10
e 3 13
e 3 16
e 3 21
e 3 22
e 3 23
e 3 27
e 3 28
e 3 31
e 3 33
e 3 36
e 3 39
e 3 42
e 3 45
e 3 46
e 3 51
e 3 52
e 3 53
e 3 55
e 4 5
e 4 6
e 4 8
e 4 11
e 4 12
e 4 14
e 4 15
e 4 21
e 4 22
e 4 29
e 4 31
e 4 33
e 4 34
e 4 37
e 4 38
e 4 43
e 4 49
e 4 51
e 4 53
e 5 6
e 5 14
e 5 15
e 5 20
e 5 24
e 5 26
e 5 27
e 5 30
e 5 31
e 5 33
e 5 40
e 5 42
e 5 45
e 5 46
e 5 48
e 5 52
e 5 53
e 5 54
e 6 10
e 6 16
e 6 18
e 6 21
e 6 22
e 6 23
e 6 25
e 6 28
e 6 30
e 6 34
e 6 36
e 6 37
e 6 40
e 6 44
e 6 45
e 6 51
e 6 52
e 6 53
e 7 10
e 7 11
e 7 12
e 7 17
e 7 23
e 7 25
e 7 30
e 7 32
e 7 35
e 7 38
e 7 40
e 7 41
e 7 42
e 7 43
e 7 46
e 7 52
e 7 54
e 8 9
e 8 10
e 8 13
e 8 18
e 8 20
e 8 27
e 8 29
e 8 30
e 8 33
e 8 34
e 8 37
e 8 38
e 8 44
e 8 46
e 8 47
e 8 53
e 9 11
e 9 12
e 9 15
e 9 19
e 9 20
e 9 21
e 9 22
e 9 25
e 9 28
e 9 31
e 9 33
e 9 36
e 9 38
e 9 41
e 9 42
e 10 14
e 10 15
e 10 20
e 10 21
e 10 22
e 10 23
e 10 24
e 10 26
e 10 27
e 10 30
e 10 34
e 10 42
e 10 43
e 10 51
e 10 52
e 10 54
e 10 55
e 11 14
e 11 16
e 11 18
e 11 21
e 11 23
e 11 25
e 11 27
e 11 28
e 11 33
e 11 34
e 11 35
e 11 38
e 11 44
e 11 45
e 11 46
e 11 47
e 11 50
e 11 53
e 12 13
e 12 16
e 12 17
e 12 18
e 12 23
e 12 26
e 12 30
e 12 33
e 12 37
e 12 40
e 12 48
e 12 54
e 13 15
e 13 17
e 13 21
e 13 23
e 13 24
e 13 26
e 13 29
e 13 30
e 13 32
e 13 40
e 13 41
e 13 43
e 13 49
e 13 51
e 13 52
e 13 53
e 13 54
e 13 55
e 14 17
e 14 18
e 14 23
e 14 24
e 14 25
e 14 26
e 14 27
e 14 28
e 14 30
e 14 34
e 14 41
e 14 42
e 14 47
e 14 49
e 14 50
e 14 52
e 14 54
e 15 18
e 15 24
e 15 29
e 15 30
e 15 32
e 15 33
e 15 34
e 15 35
e 15 38
e 15 39
e 15 54
e 15 55
e 16 17
e 16 20
e 16 21
e 16 27
e 16 28
e 16 30
e 16 31
e 16 32
e 16 39
e 16 40
e 16 45
e 16 49
e 16 50
e 16 51
e 16 54
e 17 18
e 17 23
e 17 24
e 17 32
e 17 37
e 17 42
e 17 45
e 17 46
e 17 49
e 17 53
e 18 21
e 18 24
e 18 31
e 18 37
e 18 38
e 18 42
e 18 44
e 18 48
e 18 49
e 18 52
e 18 54
e 19 27
e 19 38
e 19 41
e 19 48
e 19 52
e 19 53
e 20 24
e 20 30
e 20 32
e 20 34
e 20 38
e 20 39
e 20 42
e 20 44
e 20 46
e 20 47
e 20 48
e 20 52
e 20 54
e 21 24
e 21 26
e 21 29
e 21 33
e 21 36
e 21 40
e 21 44
e 21 47
e 22 24
e 22 28
e 22 29
e 22 31
e 22 32
e 22 38
e 22 43
e 22 44
e 22 46
e 22 55
e 23 31
e 23 32
e 23 33
e 23 37
e 23 38
e 23 41
e 23 43
e 23 45
e 23 47
e 23 49
e 24 25
e 24 27
e 24 31
e 24 36
e 24 40
e 24 42
e 24 43
e 24 49
e 24 51
e 24 52
e 24 54
e 25 26
e 25 27
e 25 29
e 25 30
e 25 32
e 25 34
e 25 35
e 25 36
e 25 37
e 25 39
e 25 40
e 25 42
e 25 43
e 25 44
e 25 45
e 25 52
e 25 55
e 26 32
e 26 38
e 26 39
e 26 41
e 26 42
e 26 45
e 26 50
e 27 28
e 27 30
e 27 31
e 27 34
e 27 38
e 27 40
e 27 42
e 27 43
e 27 49
e 27 50
e 27 51
e 28 31
e 28 33
e 28 35
e 28 36
e 28 47
e 28 50
e 28 51
e 28 53
e 28 54
e 28 55
e 29 33
e 29 35
e 29 37
e 29 39
e 29 44
e 29 45
e 29 46
e 29 49
e 29 53
e 29 55
e 30 32
e 30 36
e 30 39
e 30 40
e 30 41
e 30 42
e 30 43
e 30 44
e 30 45
e 30 47
e 30 53
e 30 55
e 31 32
e 31 39
e 31 40
e 31 41
e 31 46
e 31 48
e 31 52
e 31 53
e 31 54
e 31 55
e 32 34
e 32 37
e 32 41
e 32 42
e 32 43
e 32 47
e 33 37
e 33 38
e 33 40
e 33 41
e 33 42
e 33 44
e 33 46
e 33 48
e 34 39
e 34 41
e 34 42
e 34 43
e 34 45
e 34 48
e 34 49
e 34 53
e 34 55
e 35 37
e 35 41
e 35 42
e 35 44
e 35 49
e 35 51
e 35 52
e 36 39
e 36 52
e 36 53
e 37 38
e 37 39
e 37 40
e 37 42
e 37 46
e 37 47
e 37 49
e 37 51
e 37 55
e 38 42
e 38 44
e 38 48
e 39 40
e 39 46
e 39 47
e 39 51
e 39 54
e 40 41
e 40 43
e 40 46
e 40 48
e 40 49
e 40 50
e 40 52
e 40 55
e 41 46
e 41 47
e 41 50
e 41 53
e 41 54
e 41 55
e 42 47
e 42 48
e 42 49
e 42 50
e 42 54
e 43 45
e 43 47
e 43 48
e 43 51
e 43 54
e 44 45
e 44 54
e 44 55
e 45 47
e 45 52
e 45 53
e 46 47
e 46 53
e 47 48
e 47 49
e 47 50
e 47 51
e 48 49
e 48 51
e 48 52
e 48 55
e 49 50
e 51 54
e 52 55
e 53 54
e 54 55
